p cnf 1065 1791             
-2 -1 -85 0
85 -93 0
-1 86 0
-2 86 0
1 2 -86 0
-86 -3 -87 0
87 -93 0
-3 88 0
-86 88 0
3 86 -88 0
-88 -4 -89 0
89 -93 0
-4 90 0
-88 90 0
4 88 -90 0
-90 -5 -91 0
91 -93 0
5 90 -92 0
92 -93 0
93 -229 0
-7 -6 -94 0
94 -102 0
-6 95 0
-7 95 0
6 7 -95 0
-95 -8 -96 0
96 -102 0
-8 97 0
-95 97 0
8 95 -97 0
-97 -9 -98 0
98 -102 0
-9 99 0
-97 99 0
9 97 -99 0
-99 -10 -100 0
100 -102 0
10 99 -101 0
101 -102 0
102 -229 0
-12 -11 -103 0
103 -111 0
-11 104 0
-12 104 0
11 12 -104 0
-104 -13 -105 0
105 -111 0
-13 106 0
-104 106 0
13 104 -106 0
-106 -14 -107 0
107 -111 0
-14 108 0
-106 108 0
14 106 -108 0
-108 -15 -109 0
109 -111 0
15 108 -110 0
110 -111 0
111 -229 0
-17 -16 -112 0
112 -120 0
-16 113 0
-17 113 0
16 17 -113 0
-113 -18 -114 0
114 -120 0
-18 115 0
-113 115 0
18 113 -115 0
-115 -19 -116 0
116 -120 0
-19 117 0
-115 117 0
19 115 -117 0
-117 -20 -118 0
118 -120 0
20 117 -119 0
119 -120 0
120 -229 0
-22 -21 -121 0
121 -129 0
-21 122 0
-22 122 0
21 22 -122 0
-122 -23 -123 0
123 -129 0
-23 124 0
-122 124 0
23 122 -124 0
-124 -24 -125 0
125 -129 0
-24 126 0
-124 126 0
24 124 -126 0
-126 -25 -127 0
127 -129 0
25 126 -128 0
128 -129 0
129 -229 0
-27 -26 -130 0
130 -138 0
-26 131 0
-27 131 0
26 27 -131 0
-131 -28 -132 0
132 -138 0
-28 133 0
-131 133 0
28 131 -133 0
-133 -29 -134 0
134 -138 0
-29 135 0
-133 135 0
29 133 -135 0
-135 -30 -136 0
136 -138 0
30 135 -137 0
137 -138 0
138 -229 0
-32 -31 -139 0
139 -147 0
-31 140 0
-32 140 0
31 32 -140 0
-140 -33 -141 0
141 -147 0
-33 142 0
-140 142 0
33 140 -142 0
-142 -34 -143 0
143 -147 0
-34 144 0
-142 144 0
34 142 -144 0
-144 -35 -145 0
145 -147 0
35 144 -146 0
146 -147 0
147 -229 0
-37 -36 -148 0
148 -156 0
-36 149 0
-37 149 0
36 37 -149 0
-149 -38 -150 0
150 -156 0
-38 151 0
-149 151 0
38 149 -151 0
-151 -39 -152 0
152 -156 0
-39 153 0
-151 153 0
39 151 -153 0
-153 -40 -154 0
154 -156 0
40 153 -155 0
155 -156 0
156 -229 0
-42 -41 -157 0
157 -165 0
-41 158 0
-42 158 0
41 42 -158 0
-158 -43 -159 0
159 -165 0
-43 160 0
-158 160 0
43 158 -160 0
-160 -44 -161 0
161 -165 0
-44 162 0
-160 162 0
44 160 -162 0
-162 -45 -163 0
163 -165 0
45 162 -164 0
164 -165 0
165 -229 0
-47 -46 -166 0
166 -174 0
-46 167 0
-47 167 0
46 47 -167 0
-167 -48 -168 0
168 -174 0
-48 169 0
-167 169 0
48 167 -169 0
-169 -49 -170 0
170 -174 0
-49 171 0
-169 171 0
49 169 -171 0
-171 -50 -172 0
172 -174 0
50 171 -173 0
173 -174 0
174 -229 0
-52 -51 -175 0
175 -183 0
-51 176 0
-52 176 0
51 52 -176 0
-176 -53 -177 0
177 -183 0
-53 178 0
-176 178 0
53 176 -178 0
-178 -54 -179 0
179 -183 0
-54 180 0
-178 180 0
54 178 -180 0
-180 -55 -181 0
181 -183 0
55 180 -182 0
182 -183 0
183 -229 0
-57 -56 -184 0
184 -192 0
-56 185 0
-57 185 0
56 57 -185 0
-185 -58 -186 0
186 -192 0
-58 187 0
-185 187 0
58 185 -187 0
-187 -59 -188 0
188 -192 0
-59 189 0
-187 189 0
59 187 -189 0
-189 -60 -190 0
190 -192 0
60 189 -191 0
191 -192 0
192 -229 0
-62 -61 -193 0
193 -201 0
-61 194 0
-62 194 0
61 62 -194 0
-194 -63 -195 0
195 -201 0
-63 196 0
-194 196 0
63 194 -196 0
-196 -64 -197 0
197 -201 0
-64 198 0
-196 198 0
64 196 -198 0
-198 -65 -199 0
199 -201 0
65 198 -200 0
200 -201 0
201 -229 0
-67 -66 -202 0
202 -210 0
-66 203 0
-67 203 0
66 67 -203 0
-203 -68 -204 0
204 -210 0
-68 205 0
-203 205 0
68 203 -205 0
-205 -69 -206 0
206 -210 0
-69 207 0
-205 207 0
69 205 -207 0
-207 -70 -208 0
208 -210 0
70 207 -209 0
209 -210 0
210 -229 0
-72 -71 -211 0
211 -219 0
-71 212 0
-72 212 0
71 72 -212 0
-212 -73 -213 0
213 -219 0
-73 214 0
-212 214 0
73 212 -214 0
-214 -74 -215 0
215 -219 0
-74 216 0
-214 216 0
74 214 -216 0
-216 -75 -217 0
217 -219 0
75 216 -218 0
218 -219 0
219 -229 0
-77 -76 -220 0
220 -228 0
-76 221 0
-77 221 0
76 77 -221 0
-221 -78 -222 0
222 -228 0
-78 223 0
-221 223 0
78 221 -223 0
-223 -79 -224 0
224 -228 0
-79 225 0
-223 225 0
79 223 -225 0
-225 -80 -226 0
226 -228 0
80 225 -227 0
227 -228 0
228 -229 0
229 -442 0
-82 -81 -230 0
230 -236 0
-81 231 0
-82 231 0
81 82 -231 0
-231 -83 -232 0
232 -236 0
-83 233 0
-231 233 0
83 231 -233 0
-233 -84 -234 0
234 -236 0
84 233 -235 0
235 -236 0
236 -442 0
76 -332 0
84 -332 0
-76 -84 332 0
61 -415 0
81 -415 0
66 -420 0
82 -420 0
71 -425 0
83 -425 0
332 415 420 425 -430 0
430 435 0
-16 -81 272 0
-272 352 0
-36 -82 292 0
-292 352 0
-56 -83 312 0
-312 352 0
-332 352 0
-352 435 0
77 -333 0
84 -333 0
-77 -84 333 0
62 -416 0
81 -416 0
67 -421 0
82 -421 0
72 -426 0
83 -426 0
333 416 421 426 -431 0
431 436 0
-17 -81 273 0
-273 353 0
-37 -82 293 0
-293 353 0
-57 -83 313 0
-313 353 0
-333 353 0
-353 436 0
78 -334 0
84 -334 0
-78 -84 334 0
63 -417 0
81 -417 0
68 -422 0
82 -422 0
73 -427 0
83 -427 0
334 417 422 427 -432 0
432 437 0
-18 -81 274 0
-274 354 0
-38 -82 294 0
-294 354 0
-58 -83 314 0
-314 354 0
-334 354 0
-354 437 0
79 -335 0
84 -335 0
-79 -84 335 0
64 -418 0
81 -418 0
69 -423 0
82 -423 0
74 -428 0
83 -428 0
335 418 423 428 -433 0
433 438 0
-19 -81 275 0
-275 355 0
-39 -82 295 0
-295 355 0
-59 -83 315 0
-315 355 0
-335 355 0
-355 438 0
80 -336 0
84 -336 0
-80 -84 336 0
65 -419 0
81 -419 0
70 -424 0
82 -424 0
75 -429 0
83 -429 0
336 419 424 429 -434 0
434 439 0
-20 -81 276 0
-276 356 0
-40 -82 296 0
-296 356 0
-60 -83 316 0
-316 356 0
-336 356 0
-356 439 0
-435 -436 -437 -438 -439 440 0
-440 -441 0
51 -307 0
83 -307 0
-51 -83 307 0
41 -389 0
81 -389 0
46 -394 0
82 -394 0
56 -399 0
84 -399 0
307 389 394 399 -404 0
404 409 0
-11 -81 267 0
-267 347 0
-31 -82 287 0
-287 347 0
-307 347 0
-71 -84 327 0
-327 347 0
-347 409 0
52 -308 0
83 -308 0
-52 -83 308 0
42 -390 0
81 -390 0
47 -395 0
82 -395 0
57 -400 0
84 -400 0
308 390 395 400 -405 0
405 410 0
-12 -81 268 0
-268 348 0
-32 -82 288 0
-288 348 0
-308 348 0
-72 -84 328 0
-328 348 0
-348 410 0
53 -309 0
83 -309 0
-53 -83 309 0
43 -391 0
81 -391 0
48 -396 0
82 -396 0
58 -401 0
84 -401 0
309 391 396 401 -406 0
406 411 0
-13 -81 269 0
-269 349 0
-33 -82 289 0
-289 349 0
-309 349 0
-73 -84 329 0
-329 349 0
-349 411 0
54 -310 0
83 -310 0
-54 -83 310 0
44 -392 0
81 -392 0
49 -397 0
82 -397 0
59 -402 0
84 -402 0
310 392 397 402 -407 0
407 412 0
-14 -81 270 0
-270 350 0
-34 -82 290 0
-290 350 0
-310 350 0
-74 -84 330 0
-330 350 0
-350 412 0
55 -311 0
83 -311 0
-55 -83 311 0
45 -393 0
81 -393 0
50 -398 0
82 -398 0
60 -403 0
84 -403 0
311 393 398 403 -408 0
408 413 0
-15 -81 271 0
-271 351 0
-35 -82 291 0
-291 351 0
-311 351 0
-75 -84 331 0
-331 351 0
-351 413 0
-409 -410 -411 -412 -413 414 0
-414 -441 0
26 -282 0
82 -282 0
-26 -82 282 0
21 -363 0
81 -363 0
31 -368 0
83 -368 0
36 -373 0
84 -373 0
282 363 368 373 -378 0
378 383 0
-6 -81 262 0
-262 342 0
-282 342 0
-46 -83 302 0
-302 342 0
-66 -84 322 0
-322 342 0
-342 383 0
27 -283 0
82 -283 0
-27 -82 283 0
22 -364 0
81 -364 0
32 -369 0
83 -369 0
37 -374 0
84 -374 0
283 364 369 374 -379 0
379 384 0
-7 -81 263 0
-263 343 0
-283 343 0
-47 -83 303 0
-303 343 0
-67 -84 323 0
-323 343 0
-343 384 0
28 -284 0
82 -284 0
-28 -82 284 0
23 -365 0
81 -365 0
33 -370 0
83 -370 0
38 -375 0
84 -375 0
284 365 370 375 -380 0
380 385 0
-8 -81 264 0
-264 344 0
-284 344 0
-48 -83 304 0
-304 344 0
-68 -84 324 0
-324 344 0
-344 385 0
29 -285 0
82 -285 0
-29 -82 285 0
24 -366 0
81 -366 0
34 -371 0
83 -371 0
39 -376 0
84 -376 0
285 366 371 376 -381 0
381 386 0
-9 -81 265 0
-265 345 0
-285 345 0
-49 -83 305 0
-305 345 0
-69 -84 325 0
-325 345 0
-345 386 0
30 -286 0
82 -286 0
-30 -82 286 0
25 -367 0
81 -367 0
35 -372 0
83 -372 0
40 -377 0
84 -377 0
286 367 372 377 -382 0
382 387 0
-10 -81 266 0
-266 346 0
-286 346 0
-50 -83 306 0
-306 346 0
-70 -84 326 0
-326 346 0
-346 387 0
-383 -384 -385 -386 -387 388 0
-388 -441 0
1 -237 0
81 -237 0
-1 -81 237 0
6 -242 0
82 -242 0
11 -247 0
83 -247 0
16 -252 0
84 -252 0
237 242 247 252 -257 0
257 357 0
-237 337 0
-21 -82 277 0
-277 337 0
-41 -83 297 0
-297 337 0
-61 -84 317 0
-317 337 0
-337 357 0
2 -238 0
81 -238 0
-2 -81 238 0
7 -243 0
82 -243 0
12 -248 0
83 -248 0
17 -253 0
84 -253 0
238 243 248 253 -258 0
258 358 0
-238 338 0
-22 -82 278 0
-278 338 0
-42 -83 298 0
-298 338 0
-62 -84 318 0
-318 338 0
-338 358 0
3 -239 0
81 -239 0
-3 -81 239 0
8 -244 0
82 -244 0
13 -249 0
83 -249 0
18 -254 0
84 -254 0
239 244 249 254 -259 0
259 359 0
-239 339 0
-23 -82 279 0
-279 339 0
-43 -83 299 0
-299 339 0
-63 -84 319 0
-319 339 0
-339 359 0
4 -240 0
81 -240 0
-4 -81 240 0
9 -245 0
82 -245 0
14 -250 0
83 -250 0
19 -255 0
84 -255 0
240 245 250 255 -260 0
260 360 0
-240 340 0
-24 -82 280 0
-280 340 0
-44 -83 300 0
-300 340 0
-64 -84 320 0
-320 340 0
-340 360 0
5 -241 0
81 -241 0
-5 -81 241 0
10 -246 0
82 -246 0
15 -251 0
83 -251 0
20 -256 0
84 -256 0
241 246 251 256 -261 0
261 361 0
-241 341 0
-25 -82 281 0
-281 341 0
-45 -83 301 0
-301 341 0
-65 -84 321 0
-321 341 0
-341 361 0
-357 -358 -359 -360 -361 362 0
-362 -441 0
441 -442 0
-1 2 -443 0
443 -505 0
-1 -2 444 0
1 2 444 0
-2 2 444 0
-6 7 -445 0
-444 445 -446 0
446 -505 0
-6 -7 447 0
6 7 447 0
-7 7 447 0
-444 -447 448 0
-11 12 -449 0
-448 449 -450 0
450 -505 0
-11 -12 451 0
11 12 451 0
-12 12 451 0
-448 -451 452 0
-16 17 -453 0
-452 453 -454 0
454 -505 0
-16 -17 455 0
16 17 455 0
-17 17 455 0
-452 -455 456 0
-21 22 -457 0
-456 457 -458 0
458 -505 0
-21 -22 459 0
21 22 459 0
-22 22 459 0
-456 -459 460 0
-26 27 -461 0
-460 461 -462 0
462 -505 0
-26 -27 463 0
26 27 463 0
-27 27 463 0
-460 -463 464 0
-31 32 -465 0
-464 465 -466 0
466 -505 0
-31 -32 467 0
31 32 467 0
-32 32 467 0
-464 -467 468 0
-36 37 -469 0
-468 469 -470 0
470 -505 0
-36 -37 471 0
36 37 471 0
-37 37 471 0
-468 -471 472 0
-41 42 -473 0
-472 473 -474 0
474 -505 0
-41 -42 475 0
41 42 475 0
-42 42 475 0
-472 -475 476 0
-46 47 -477 0
-476 477 -478 0
478 -505 0
-46 -47 479 0
46 47 479 0
-47 47 479 0
-476 -479 480 0
-51 52 -481 0
-480 481 -482 0
482 -505 0
-51 -52 483 0
51 52 483 0
-52 52 483 0
-480 -483 484 0
-56 57 -485 0
-484 485 -486 0
486 -505 0
-56 -57 487 0
56 57 487 0
-57 57 487 0
-484 -487 488 0
-61 62 -489 0
-488 489 -490 0
490 -505 0
-61 -62 491 0
61 62 491 0
-62 62 491 0
-488 -491 492 0
-66 67 -493 0
-492 493 -494 0
494 -505 0
-66 -67 495 0
66 67 495 0
-67 67 495 0
-492 -495 496 0
-71 72 -497 0
-496 497 -498 0
498 -505 0
-71 -72 499 0
71 72 499 0
-72 72 499 0
-496 -499 500 0
-76 77 -501 0
-500 501 -502 0
502 -505 0
505 -1064 0
-2 3 -506 0
506 -568 0
-2 -3 507 0
2 3 507 0
-3 3 507 0
-7 8 -508 0
-507 508 -509 0
509 -568 0
-7 -8 510 0
7 8 510 0
-8 8 510 0
-507 -510 511 0
-12 13 -512 0
-511 512 -513 0
513 -568 0
-12 -13 514 0
12 13 514 0
-13 13 514 0
-511 -514 515 0
-17 18 -516 0
-515 516 -517 0
517 -568 0
-17 -18 518 0
17 18 518 0
-18 18 518 0
-515 -518 519 0
-22 23 -520 0
-519 520 -521 0
521 -568 0
-22 -23 522 0
22 23 522 0
-23 23 522 0
-519 -522 523 0
-27 28 -524 0
-523 524 -525 0
525 -568 0
-27 -28 526 0
27 28 526 0
-28 28 526 0
-523 -526 527 0
-32 33 -528 0
-527 528 -529 0
529 -568 0
-32 -33 530 0
32 33 530 0
-33 33 530 0
-527 -530 531 0
-37 38 -532 0
-531 532 -533 0
533 -568 0
-37 -38 534 0
37 38 534 0
-38 38 534 0
-531 -534 535 0
-42 43 -536 0
-535 536 -537 0
537 -568 0
-42 -43 538 0
42 43 538 0
-43 43 538 0
-535 -538 539 0
-47 48 -540 0
-539 540 -541 0
541 -568 0
-47 -48 542 0
47 48 542 0
-48 48 542 0
-539 -542 543 0
-52 53 -544 0
-543 544 -545 0
545 -568 0
-52 -53 546 0
52 53 546 0
-53 53 546 0
-543 -546 547 0
-57 58 -548 0
-547 548 -549 0
549 -568 0
-57 -58 550 0
57 58 550 0
-58 58 550 0
-547 -550 551 0
-62 63 -552 0
-551 552 -553 0
553 -568 0
-62 -63 554 0
62 63 554 0
-63 63 554 0
-551 -554 555 0
-67 68 -556 0
-555 556 -557 0
557 -568 0
-67 -68 558 0
67 68 558 0
-68 68 558 0
-555 -558 559 0
-72 73 -560 0
-559 560 -561 0
561 -568 0
-72 -73 562 0
72 73 562 0
-73 73 562 0
-559 -562 563 0
-77 78 -564 0
-563 564 -565 0
565 -568 0
568 -1064 0
-3 4 -569 0
569 -631 0
-3 -4 570 0
3 4 570 0
-4 4 570 0
-8 9 -571 0
-570 571 -572 0
572 -631 0
-8 -9 573 0
8 9 573 0
-9 9 573 0
-570 -573 574 0
-13 14 -575 0
-574 575 -576 0
576 -631 0
-13 -14 577 0
13 14 577 0
-14 14 577 0
-574 -577 578 0
-18 19 -579 0
-578 579 -580 0
580 -631 0
-18 -19 581 0
18 19 581 0
-19 19 581 0
-578 -581 582 0
-23 24 -583 0
-582 583 -584 0
584 -631 0
-23 -24 585 0
23 24 585 0
-24 24 585 0
-582 -585 586 0
-28 29 -587 0
-586 587 -588 0
588 -631 0
-28 -29 589 0
28 29 589 0
-29 29 589 0
-586 -589 590 0
-33 34 -591 0
-590 591 -592 0
592 -631 0
-33 -34 593 0
33 34 593 0
-34 34 593 0
-590 -593 594 0
-38 39 -595 0
-594 595 -596 0
596 -631 0
-38 -39 597 0
38 39 597 0
-39 39 597 0
-594 -597 598 0
-43 44 -599 0
-598 599 -600 0
600 -631 0
-43 -44 601 0
43 44 601 0
-44 44 601 0
-598 -601 602 0
-48 49 -603 0
-602 603 -604 0
604 -631 0
-48 -49 605 0
48 49 605 0
-49 49 605 0
-602 -605 606 0
-53 54 -607 0
-606 607 -608 0
608 -631 0
-53 -54 609 0
53 54 609 0
-54 54 609 0
-606 -609 610 0
-58 59 -611 0
-610 611 -612 0
612 -631 0
-58 -59 613 0
58 59 613 0
-59 59 613 0
-610 -613 614 0
-63 64 -615 0
-614 615 -616 0
616 -631 0
-63 -64 617 0
63 64 617 0
-64 64 617 0
-614 -617 618 0
-68 69 -619 0
-618 619 -620 0
620 -631 0
-68 -69 621 0
68 69 621 0
-69 69 621 0
-618 -621 622 0
-73 74 -623 0
-622 623 -624 0
624 -631 0
-73 -74 625 0
73 74 625 0
-74 74 625 0
-622 -625 626 0
-78 79 -627 0
-626 627 -628 0
628 -631 0
631 -1064 0
-4 5 -632 0
632 -694 0
-4 -5 633 0
4 5 633 0
-5 5 633 0
-9 10 -634 0
-633 634 -635 0
635 -694 0
-9 -10 636 0
9 10 636 0
-10 10 636 0
-633 -636 637 0
-14 15 -638 0
-637 638 -639 0
639 -694 0
-14 -15 640 0
14 15 640 0
-15 15 640 0
-637 -640 641 0
-19 20 -642 0
-641 642 -643 0
643 -694 0
-19 -20 644 0
19 20 644 0
-20 20 644 0
-641 -644 645 0
-24 25 -646 0
-645 646 -647 0
647 -694 0
-24 -25 648 0
24 25 648 0
-25 25 648 0
-645 -648 649 0
-29 30 -650 0
-649 650 -651 0
651 -694 0
-29 -30 652 0
29 30 652 0
-30 30 652 0
-649 -652 653 0
-34 35 -654 0
-653 654 -655 0
655 -694 0
-34 -35 656 0
34 35 656 0
-35 35 656 0
-653 -656 657 0
-39 40 -658 0
-657 658 -659 0
659 -694 0
-39 -40 660 0
39 40 660 0
-40 40 660 0
-657 -660 661 0
-44 45 -662 0
-661 662 -663 0
663 -694 0
-44 -45 664 0
44 45 664 0
-45 45 664 0
-661 -664 665 0
-49 50 -666 0
-665 666 -667 0
667 -694 0
-49 -50 668 0
49 50 668 0
-50 50 668 0
-665 -668 669 0
-54 55 -670 0
-669 670 -671 0
671 -694 0
-54 -55 672 0
54 55 672 0
-55 55 672 0
-669 -672 673 0
-59 60 -674 0
-673 674 -675 0
675 -694 0
-59 -60 676 0
59 60 676 0
-60 60 676 0
-673 -676 677 0
-64 65 -678 0
-677 678 -679 0
679 -694 0
-64 -65 680 0
64 65 680 0
-65 65 680 0
-677 -680 681 0
-69 70 -682 0
-681 682 -683 0
683 -694 0
-69 -70 684 0
69 70 684 0
-70 70 684 0
-681 -684 685 0
-74 75 -686 0
-685 686 -687 0
687 -694 0
-74 -75 688 0
74 75 688 0
-75 75 688 0
-685 -688 689 0
-79 80 -690 0
-689 690 -691 0
691 -694 0
694 -1064 0
-81 82 -695 0
695 -817 0
-81 -82 696 0
81 82 696 0
-82 82 696 0
-1 26 -697 0
-696 697 -698 0
698 -817 0
-1 -26 699 0
1 26 699 0
-26 26 699 0
-696 -699 700 0
-2 27 -701 0
-700 701 -702 0
702 -817 0
-2 -27 703 0
2 27 703 0
-27 27 703 0
-700 -703 704 0
-3 28 -705 0
-704 705 -706 0
706 -817 0
-3 -28 707 0
3 28 707 0
-28 28 707 0
-704 -707 708 0
-4 29 -709 0
-708 709 -710 0
710 -817 0
-4 -29 711 0
4 29 711 0
-29 29 711 0
-708 -711 712 0
-5 30 -713 0
-712 713 -714 0
714 -817 0
-5 -30 715 0
5 30 715 0
-30 30 715 0
-712 -715 716 0
-6 21 -717 0
-716 717 -718 0
718 -817 0
-6 -21 719 0
6 21 719 0
-21 21 719 0
-716 -719 720 0
-7 22 -721 0
-720 721 -722 0
722 -817 0
-7 -22 723 0
7 22 723 0
-22 22 723 0
-720 -723 724 0
-8 23 -725 0
-724 725 -726 0
726 -817 0
-8 -23 727 0
8 23 727 0
-23 23 727 0
-724 -727 728 0
-9 24 -729 0
-728 729 -730 0
730 -817 0
-9 -24 731 0
9 24 731 0
-24 24 731 0
-728 -731 732 0
-10 25 -733 0
-732 733 -734 0
734 -817 0
-10 -25 735 0
10 25 735 0
-25 25 735 0
-732 -735 736 0
-11 31 -737 0
-736 737 -738 0
738 -817 0
-11 -31 739 0
11 31 739 0
-31 31 739 0
-736 -739 740 0
-12 32 -741 0
-740 741 -742 0
742 -817 0
-12 -32 743 0
12 32 743 0
-32 32 743 0
-740 -743 744 0
-13 33 -745 0
-744 745 -746 0
746 -817 0
-13 -33 747 0
13 33 747 0
-33 33 747 0
-744 -747 748 0
-14 34 -749 0
-748 749 -750 0
750 -817 0
-14 -34 751 0
14 34 751 0
-34 34 751 0
-748 -751 752 0
-15 35 -753 0
-752 753 -754 0
754 -817 0
-15 -35 755 0
15 35 755 0
-35 35 755 0
-752 -755 756 0
-16 36 -757 0
-756 757 -758 0
758 -817 0
-16 -36 759 0
16 36 759 0
-36 36 759 0
-756 -759 760 0
-17 37 -761 0
-760 761 -762 0
762 -817 0
-17 -37 763 0
17 37 763 0
-37 37 763 0
-760 -763 764 0
-18 38 -765 0
-764 765 -766 0
766 -817 0
-18 -38 767 0
18 38 767 0
-38 38 767 0
-764 -767 768 0
-19 39 -769 0
-768 769 -770 0
770 -817 0
-19 -39 771 0
19 39 771 0
-39 39 771 0
-768 -771 772 0
-20 40 -773 0
-772 773 -774 0
774 -817 0
-20 -40 775 0
20 40 775 0
-40 40 775 0
-772 -775 776 0
-41 46 -777 0
-776 777 -778 0
778 -817 0
-41 -46 779 0
41 46 779 0
-46 46 779 0
-776 -779 780 0
-42 47 -781 0
-780 781 -782 0
782 -817 0
-42 -47 783 0
42 47 783 0
-47 47 783 0
-780 -783 784 0
-43 48 -785 0
-784 785 -786 0
786 -817 0
-43 -48 787 0
43 48 787 0
-48 48 787 0
-784 -787 788 0
-44 49 -789 0
-788 789 -790 0
790 -817 0
-44 -49 791 0
44 49 791 0
-49 49 791 0
-788 -791 792 0
-45 50 -793 0
-792 793 -794 0
794 -817 0
-45 -50 795 0
45 50 795 0
-50 50 795 0
-792 -795 796 0
-61 66 -797 0
-796 797 -798 0
798 -817 0
-61 -66 799 0
61 66 799 0
-66 66 799 0
-796 -799 800 0
-62 67 -801 0
-800 801 -802 0
802 -817 0
-62 -67 803 0
62 67 803 0
-67 67 803 0
-800 -803 804 0
-63 68 -805 0
-804 805 -806 0
806 -817 0
-63 -68 807 0
63 68 807 0
-68 68 807 0
-804 -807 808 0
-64 69 -809 0
-808 809 -810 0
810 -817 0
-64 -69 811 0
64 69 811 0
-69 69 811 0
-808 -811 812 0
-65 70 -813 0
-812 813 -814 0
814 -817 0
817 -1064 0
-82 83 -818 0
818 -940 0
-82 -83 819 0
82 83 819 0
-83 83 819 0
-6 11 -820 0
-819 820 -821 0
821 -940 0
-6 -11 822 0
6 11 822 0
-11 11 822 0
-819 -822 823 0
-7 12 -824 0
-823 824 -825 0
825 -940 0
-7 -12 826 0
7 12 826 0
-12 12 826 0
-823 -826 827 0
-8 13 -828 0
-827 828 -829 0
829 -940 0
-8 -13 830 0
8 13 830 0
-13 13 830 0
-827 -830 831 0
-9 14 -832 0
-831 832 -833 0
833 -940 0
-9 -14 834 0
9 14 834 0
-14 14 834 0
-831 -834 835 0
-10 15 -836 0
-835 836 -837 0
837 -940 0
-10 -15 838 0
10 15 838 0
-15 15 838 0
-835 -838 839 0
-21 41 -840 0
-839 840 -841 0
841 -940 0
-21 -41 842 0
21 41 842 0
-41 41 842 0
-839 -842 843 0
-22 42 -844 0
-843 844 -845 0
845 -940 0
-22 -42 846 0
22 42 846 0
-42 42 846 0
-843 -846 847 0
-23 43 -848 0
-847 848 -849 0
849 -940 0
-23 -43 850 0
23 43 850 0
-43 43 850 0
-847 -850 851 0
-24 44 -852 0
-851 852 -853 0
853 -940 0
-24 -44 854 0
24 44 854 0
-44 44 854 0
-851 -854 855 0
-25 45 -856 0
-855 856 -857 0
857 -940 0
-25 -45 858 0
25 45 858 0
-45 45 858 0
-855 -858 859 0
-26 51 -860 0
-859 860 -861 0
861 -940 0
-26 -51 862 0
26 51 862 0
-51 51 862 0
-859 -862 863 0
-27 52 -864 0
-863 864 -865 0
865 -940 0
-27 -52 866 0
27 52 866 0
-52 52 866 0
-863 -866 867 0
-28 53 -868 0
-867 868 -869 0
869 -940 0
-28 -53 870 0
28 53 870 0
-53 53 870 0
-867 -870 871 0
-29 54 -872 0
-871 872 -873 0
873 -940 0
-29 -54 874 0
29 54 874 0
-54 54 874 0
-871 -874 875 0
-30 55 -876 0
-875 876 -877 0
877 -940 0
-30 -55 878 0
30 55 878 0
-55 55 878 0
-875 -878 879 0
-31 46 -880 0
-879 880 -881 0
881 -940 0
-31 -46 882 0
31 46 882 0
-46 46 882 0
-879 -882 883 0
-32 47 -884 0
-883 884 -885 0
885 -940 0
-32 -47 886 0
32 47 886 0
-47 47 886 0
-883 -886 887 0
-33 48 -888 0
-887 888 -889 0
889 -940 0
-33 -48 890 0
33 48 890 0
-48 48 890 0
-887 -890 891 0
-34 49 -892 0
-891 892 -893 0
893 -940 0
-34 -49 894 0
34 49 894 0
-49 49 894 0
-891 -894 895 0
-35 50 -896 0
-895 896 -897 0
897 -940 0
-35 -50 898 0
35 50 898 0
-50 50 898 0
-895 -898 899 0
-36 56 -900 0
-899 900 -901 0
901 -940 0
-36 -56 902 0
36 56 902 0
-56 56 902 0
-899 -902 903 0
-37 57 -904 0
-903 904 -905 0
905 -940 0
-37 -57 906 0
37 57 906 0
-57 57 906 0
-903 -906 907 0
-38 58 -908 0
-907 908 -909 0
909 -940 0
-38 -58 910 0
38 58 910 0
-58 58 910 0
-907 -910 911 0
-39 59 -912 0
-911 912 -913 0
913 -940 0
-39 -59 914 0
39 59 914 0
-59 59 914 0
-911 -914 915 0
-40 60 -916 0
-915 916 -917 0
917 -940 0
-40 -60 918 0
40 60 918 0
-60 60 918 0
-915 -918 919 0
-66 71 -920 0
-919 920 -921 0
921 -940 0
-66 -71 922 0
66 71 922 0
-71 71 922 0
-919 -922 923 0
-67 72 -924 0
-923 924 -925 0
925 -940 0
-67 -72 926 0
67 72 926 0
-72 72 926 0
-923 -926 927 0
-68 73 -928 0
-927 928 -929 0
929 -940 0
-68 -73 930 0
68 73 930 0
-73 73 930 0
-927 -930 931 0
-69 74 -932 0
-931 932 -933 0
933 -940 0
-69 -74 934 0
69 74 934 0
-74 74 934 0
-931 -934 935 0
-70 75 -936 0
-935 936 -937 0
937 -940 0
940 -1064 0
-83 84 -941 0
941 -1063 0
-83 -84 942 0
83 84 942 0
-84 84 942 0
-11 16 -943 0
-942 943 -944 0
944 -1063 0
-11 -16 945 0
11 16 945 0
-16 16 945 0
-942 -945 946 0
-12 17 -947 0
-946 947 -948 0
948 -1063 0
-12 -17 949 0
12 17 949 0
-17 17 949 0
-946 -949 950 0
-13 18 -951 0
-950 951 -952 0
952 -1063 0
-13 -18 953 0
13 18 953 0
-18 18 953 0
-950 -953 954 0
-14 19 -955 0
-954 955 -956 0
956 -1063 0
-14 -19 957 0
14 19 957 0
-19 19 957 0
-954 -957 958 0
-15 20 -959 0
-958 959 -960 0
960 -1063 0
-15 -20 961 0
15 20 961 0
-20 20 961 0
-958 -961 962 0
-31 36 -963 0
-962 963 -964 0
964 -1063 0
-31 -36 965 0
31 36 965 0
-36 36 965 0
-962 -965 966 0
-32 37 -967 0
-966 967 -968 0
968 -1063 0
-32 -37 969 0
32 37 969 0
-37 37 969 0
-966 -969 970 0
-33 38 -971 0
-970 971 -972 0
972 -1063 0
-33 -38 973 0
33 38 973 0
-38 38 973 0
-970 -973 974 0
-34 39 -975 0
-974 975 -976 0
976 -1063 0
-34 -39 977 0
34 39 977 0
-39 39 977 0
-974 -977 978 0
-35 40 -979 0
-978 979 -980 0
980 -1063 0
-35 -40 981 0
35 40 981 0
-40 40 981 0
-978 -981 982 0
-41 61 -983 0
-982 983 -984 0
984 -1063 0
-41 -61 985 0
41 61 985 0
-61 61 985 0
-982 -985 986 0
-42 62 -987 0
-986 987 -988 0
988 -1063 0
-42 -62 989 0
42 62 989 0
-62 62 989 0
-986 -989 990 0
-43 63 -991 0
-990 991 -992 0
992 -1063 0
-43 -63 993 0
43 63 993 0
-63 63 993 0
-990 -993 994 0
-44 64 -995 0
-994 995 -996 0
996 -1063 0
-44 -64 997 0
44 64 997 0
-64 64 997 0
-994 -997 998 0
-45 65 -999 0
-998 999 -1000 0
1000 -1063 0
-45 -65 1001 0
45 65 1001 0
-65 65 1001 0
-998 -1001 1002 0
-46 66 -1003 0
-1002 1003 -1004 0
1004 -1063 0
-46 -66 1005 0
46 66 1005 0
-66 66 1005 0
-1002 -1005 1006 0
-47 67 -1007 0
-1006 1007 -1008 0
1008 -1063 0
-47 -67 1009 0
47 67 1009 0
-67 67 1009 0
-1006 -1009 1010 0
-48 68 -1011 0
-1010 1011 -1012 0
1012 -1063 0
-48 -68 1013 0
48 68 1013 0
-68 68 1013 0
-1010 -1013 1014 0
-49 69 -1015 0
-1014 1015 -1016 0
1016 -1063 0
-49 -69 1017 0
49 69 1017 0
-69 69 1017 0
-1014 -1017 1018 0
-50 70 -1019 0
-1018 1019 -1020 0
1020 -1063 0
-50 -70 1021 0
50 70 1021 0
-70 70 1021 0
-1018 -1021 1022 0
-51 76 -1023 0
-1022 1023 -1024 0
1024 -1063 0
-51 -76 1025 0
51 76 1025 0
-76 76 1025 0
-1022 -1025 1026 0
-52 77 -1027 0
-1026 1027 -1028 0
1028 -1063 0
-52 -77 1029 0
52 77 1029 0
-77 77 1029 0
-1026 -1029 1030 0
-53 78 -1031 0
-1030 1031 -1032 0
1032 -1063 0
-53 -78 1033 0
53 78 1033 0
-78 78 1033 0
-1030 -1033 1034 0
-54 79 -1035 0
-1034 1035 -1036 0
1036 -1063 0
-54 -79 1037 0
54 79 1037 0
-79 79 1037 0
-1034 -1037 1038 0
-55 80 -1039 0
-1038 1039 -1040 0
1040 -1063 0
-55 -80 1041 0
55 80 1041 0
-80 80 1041 0
-1038 -1041 1042 0
-56 71 -1043 0
-1042 1043 -1044 0
1044 -1063 0
-56 -71 1045 0
56 71 1045 0
-71 71 1045 0
-1042 -1045 1046 0
-57 72 -1047 0
-1046 1047 -1048 0
1048 -1063 0
-57 -72 1049 0
57 72 1049 0
-72 72 1049 0
-1046 -1049 1050 0
-58 73 -1051 0
-1050 1051 -1052 0
1052 -1063 0
-58 -73 1053 0
58 73 1053 0
-73 73 1053 0
-1050 -1053 1054 0
-59 74 -1055 0
-1054 1055 -1056 0
1056 -1063 0
-59 -74 1057 0
59 74 1057 0
-74 74 1057 0
-1054 -1057 1058 0
-60 75 -1059 0
-1058 1059 -1060 0
1060 -1063 0
1063 -1064 0
442 0
1064 0
